rcpsp/heur_output_or_constraints/Log=1/heurj60.txt
encoding rcpsp/j60.sm/j6017_3.sm nv: 136136 nc: 348987 enctime: 4.47
encoding rcpsp/j60.sm/j6017_3.sm nv: 31416 nc: 78507 enctime: 0.38
c File: j6017_3.smnaiveor1.wcnf
c timeout
c final solution cost: 74
c CPU time: 61.104248
s UNKNOWN

c File: j6017_3.smor1.wcnf
c timeout
c final solution cost: 74
c CPU time: 60.083356
s UNKNOWN


rcpsp/heur_output_or_constraints/Log=1/heurj60.txt
encoding rcpsp/j60.sm/j6017_4.sm nv: 113526 nc: 272167 enctime: 3.17
encoding rcpsp/j60.sm/j6017_4.sm nv: 20034 nc: 46375 enctime: 0.32
c File: j6017_4.smnaiveor1.wcnf
c optimal
c final solution cost: 43
c CPU time: 1.627324
s OPTIMUM FOUND

c File: j6017_4.smor1.wcnf
c optimal
c final solution cost: 43
c CPU time: 0.128833
s OPTIMUM FOUND


rcpsp/heur_output_or_constraints/Log=1/heurj60.txt
encoding rcpsp/j60.sm/j6017_5.sm nv: 115368 nc: 262773 enctime: 2.81
encoding rcpsp/j60.sm/j6017_5.sm nv: 21318 nc: 47223 enctime: 0.31
c File: j6017_5.smnaiveor1.wcnf
c optimal
c final solution cost: 46
c CPU time: 3.952465
s OPTIMUM FOUND

c File: j6017_5.smor1.wcnf
c optimal
c final solution cost: 46
c CPU time: 1.488810
s OPTIMUM FOUND


rcpsp/heur_output_or_constraints/Log=1/heurj60.txt
encoding rcpsp/j60.sm/j6017_6.sm nv: 123968 nc: 289535 enctime: 3.28
encoding rcpsp/j60.sm/j6017_6.sm nv: 23296 nc: 52859 enctime: 0.36
c File: j6017_6.smnaiveor1.wcnf
c optimal
c final solution cost: 51
c CPU time: 6.596032
s OPTIMUM FOUND

c File: j6017_6.smor1.wcnf
c optimal
c final solution cost: 51
c CPU time: 0.219913
s OPTIMUM FOUND


rcpsp/heur_output_or_constraints/Log=1/heurj60.txt
encoding rcpsp/j60.sm/j6017_7.sm nv: 128880 nc: 329025 enctime: 4.27
encoding rcpsp/j60.sm/j6017_7.sm nv: 25200 nc: 62337 enctime: 0.43
c File: j6017_7.smnaiveor1.wcnf
c optimal
c final solution cost: 64
c CPU time: 12.436189
s OPTIMUM FOUND

c File: j6017_7.smor1.wcnf
c optimal
c final solution cost: 64
c CPU time: 13.586081
s OPTIMUM FOUND


rcpsp/heur_output_or_constraints/Log=1/heurj60.txt
encoding rcpsp/j60.sm/j6017_8.sm nv: 119160 nc: 299303 enctime: 3.75
encoding rcpsp/j60.sm/j6017_8.sm nv: 28800 nc: 70642 enctime: 0.50
c File: j6017_8.smnaiveor1.wcnf
c optimal
c final solution cost: 73
c CPU time: 43.527109
s OPTIMUM FOUND

c File: j6017_8.smor1.wcnf
c optimal
c final solution cost: 73
c CPU time: 22.549838
s OPTIMUM FOUND


rcpsp/heur_output_or_constraints/Log=1/heurj60.txt
encoding rcpsp/j60.sm/j6017_9.sm nv: 112081 nc: 281081 enctime: 3.56
encoding rcpsp/j60.sm/j6017_9.sm nv: 22555 nc: 54815 enctime: 0.38
c File: j6017_9.smnaiveor1.wcnf
c timeout
c final solution cost: 61
c CPU time: 60.907629
s UNKNOWN

c File: j6017_9.smor1.wcnf
c optimal
c final solution cost: 61
c CPU time: 16.310121
s OPTIMUM FOUND


rcpsp/heur_output_or_constraints/Log=1/heurj60.txt
encoding rcpsp/j60.sm/j601_7.sm nv: 122436 nc: 306469 enctime: 3.66
encoding rcpsp/j60.sm/j601_7.sm nv: 24344 nc: 59047 enctime: 0.27
c File: j601_7.smnaiveor1.wcnf
c optimal
c final solution cost: 60
c CPU time: 14.732706
s OPTIMUM FOUND

c File: j601_7.smor1.wcnf
c optimal
c final solution cost: 60
c CPU time: 5.801128
s OPTIMUM FOUND


rcpsp/heur_output_or_constraints/Log=1/heurj60.txt
encoding rcpsp/j60.sm/j6018_10.sm nv: 173568 nc: 428357 enctime: 5.73
encoding rcpsp/j60.sm/j6018_10.sm nv: 24408 nc: 57767 enctime: 0.49
c File: j6018_10.smnaiveor1.wcnf
c optimal
c final solution cost: 48
c CPU time: 1.575587
s OPTIMUM FOUND

c File: j6018_10.smor1.wcnf
c optimal
c final solution cost: 48
c CPU time: 0.067551
s OPTIMUM FOUND


rcpsp/heur_output_or_constraints/Log=1/heurj60.txt
encoding rcpsp/j60.sm/j6018_1.sm nv: 139527 nc: 334006 enctime: 4.11
encoding rcpsp/j60.sm/j6018_1.sm nv: 19693 nc: 45146 enctime: 0.36
c File: j6018_1.smnaiveor1.wcnf
c optimal
c final solution cost: 46
c CPU time: 7.681906
s OPTIMUM FOUND

c File: j6018_1.smor1.wcnf
c optimal
c final solution cost: 46
c CPU time: 0.140967
s OPTIMUM FOUND


rcpsp/heur_output_or_constraints/Log=1/heurj60.txt
encoding rcpsp/j60.sm/j6018_2.sm nv: 167670 nc: 395618 enctime: 4.86
encoding rcpsp/j60.sm/j6018_2.sm nv: 22842 nc: 51726 enctime: 0.23
c File: j6018_2.smnaiveor1.wcnf
c optimal
c final solution cost: 42
c CPU time: 5.186489
s OPTIMUM FOUND

c File: j6018_2.smor1.wcnf
c optimal
c final solution cost: 42
c CPU time: 0.169150
s OPTIMUM FOUND


rcpsp/heur_output_or_constraints/Log=1/heurj60.txt
encoding rcpsp/j60.sm/j6018_3.sm nv: 138993 nc: 328219 enctime: 3.90
encoding rcpsp/j60.sm/j6018_3.sm nv: 22949 nc: 52447 enctime: 0.39
c File: j6018_3.smnaiveor1.wcnf
c optimal
c final solution cost: 48
c CPU time: 1.992759
s OPTIMUM FOUND

c File: j6018_3.smor1.wcnf
c optimal
c final solution cost: 48
c CPU time: 0.167554
s OPTIMUM FOUND


rcpsp/heur_output_or_constraints/Log=1/heurj60.txt
encoding rcpsp/j60.sm/j6018_4.sm nv: 171308 nc: 421692 enctime: 5.39
encoding rcpsp/j60.sm/j6018_4.sm nv: 24408 nc: 57692 enctime: 0.42
c File: j6018_4.smnaiveor1.wcnf
c optimal
c final solution cost: 48
c CPU time: 7.813499
s OPTIMUM FOUND

c File: j6018_4.smor1.wcnf
c optimal
c final solution cost: 48
c CPU time: 2.801656
s OPTIMUM FOUND


rcpsp/heur_output_or_constraints/Log=1/heurj60.txt
encoding rcpsp/j60.sm/j6018_5.sm nv: 141036 nc: 332085 enctime: 4.10
encoding rcpsp/j60.sm/j6018_5.sm nv: 24090 nc: 54939 enctime: 0.38
c File: j6018_5.smnaiveor1.wcnf
c optimal
c final solution cost: 52
c CPU time: 1.071745
s OPTIMUM FOUND

c File: j6018_5.smor1.wcnf
c optimal
c final solution cost: 52
c CPU time: 0.074272
s OPTIMUM FOUND


rcpsp/heur_output_or_constraints/Log=1/heurj60.txt
encoding rcpsp/j60.sm/j6018_6.sm nv: 155685 nc: 357743 enctime: 4.16
encoding rcpsp/j60.sm/j6018_6.sm nv: 20855 nc: 46105 enctime: 0.21
c File: j6018_6.smnaiveor1.wcnf
c optimal
c final solution cost: 37
c CPU time: 1.393610
s OPTIMUM FOUND

c File: j6018_6.smor1.wcnf
c optimal
c final solution cost: 37
c CPU time: 0.104509
s OPTIMUM FOUND


rcpsp/heur_output_or_constraints/Log=1/heurj60.txt
encoding rcpsp/j60.sm/j6018_7.sm nv: 145820 nc: 337774 enctime: 4.08
encoding rcpsp/j60.sm/j6018_7.sm nv: 26220 nc: 59054 enctime: 0.27
c File: j6018_7.smnaiveor1.wcnf
c optimal
c final solution cost: 51
c CPU time: 3.111967
s OPTIMUM FOUND

c File: j6018_7.smor1.wcnf
c optimal
c final solution cost: 51
c CPU time: 0.993511
s OPTIMUM FOUND


rcpsp/heur_output_or_constraints/Log=1/heurj60.txt
encoding rcpsp/j60.sm/j6018_8.sm nv: 151970 nc: 361411 enctime: 4.33
encoding rcpsp/j60.sm/j6018_8.sm nv: 20020 nc: 45601 enctime: 0.20
c File: j6018_8.smnaiveor1.wcnf
c optimal
c final solution cost: 39
c CPU time: 2.030234
s OPTIMUM FOUND

c File: j6018_8.smor1.wcnf
c optimal
c final solution cost: 39
c CPU time: 0.143588
s OPTIMUM FOUND


rcpsp/heur_output_or_constraints/Log=1/heurj60.txt
encoding rcpsp/j60.sm/j6018_9.sm nv: 138689 nc: 331312 enctime: 4.09
encoding rcpsp/j60.sm/j6018_9.sm nv: 18855 nc: 43024 enctime: 0.35
c File: j6018_9.smnaiveor1.wcnf
c optimal
c final solution cost: 39
c CPU time: 1.399116
s OPTIMUM FOUND

c File: j6018_9.smor1.wcnf
c optimal
c final solution cost: 39
c CPU time: 0.129321
s OPTIMUM FOUND


rcpsp/heur_output_or_constraints/Log=1/heurj60.txt
encoding rcpsp/j60.sm/j601_8.sm nv: 135772 nc: 346091 enctime: 4.44
encoding rcpsp/j60.sm/j601_8.sm nv: 25737 nc: 63481 enctime: 0.49
c File: j601_8.smnaiveor1.wcnf
c optimal
c final solution cost: 59
c CPU time: 1.810676
s OPTIMUM FOUND

c File: j601_8.smor1.wcnf
c optimal
c final solution cost: 59
c CPU time: 2.028087
s OPTIMUM FOUND


rcpsp/heur_output_or_constraints/Log=1/heurj60.txt
encoding rcpsp/j60.sm/j6019_10.sm nv: 188720 nc: 432125 enctime: 4.91
encoding rcpsp/j60.sm/j6019_10.sm nv: 25760 nc: 57026 enctime: 0.43
c File: j6019_10.smnaiveor1.wcnf
c optimal
c final solution cost: 39
c CPU time: 6.011351
s OPTIMUM FOUND

c File: j6019_10.smor1.wcnf
c optimal
c final solution cost: 39
c CPU time: 2.643221
s OPTIMUM FOUND


rcpsp/heur_output_or_constraints/Log=1/heurj60.txt
encoding rcpsp/j60.sm/j6019_1.sm nv: 179958 nc: 411191 enctime: 4.88
encoding rcpsp/j60.sm/j6019_1.sm nv: 20826 nc: 45545 enctime: 0.20
c File: j6019_1.smnaiveor1.wcnf
c optimal
c final solution cost: 38
c CPU time: 1.281035
s OPTIMUM FOUND

c File: j6019_1.smor1.wcnf
c optimal
c final solution cost: 38
c CPU time: 0.045192
s OPTIMUM FOUND


rcpsp/heur_output_or_constraints/Log=1/heurj60.txt
encoding rcpsp/j60.sm/j6019_2.sm nv: 188123 nc: 453378 enctime: 5.61
encoding rcpsp/j60.sm/j6019_2.sm nv: 22455 nc: 51658 enctime: 0.22
c File: j6019_2.smnaiveor1.wcnf
c optimal
c final solution cost: 43
c CPU time: 1.862951
s OPTIMUM FOUND

c File: j6019_2.smor1.wcnf
c optimal
c final solution cost: 43
c CPU time: 0.081081
s OPTIMUM FOUND


rcpsp/heur_output_or_constraints/Log=1/heurj60.txt
encoding rcpsp/j60.sm/j6019_3.sm nv: 163917 nc: 387858 enctime: 4.69
encoding rcpsp/j60.sm/j6019_3.sm nv: 23817 nc: 54258 enctime: 0.41
c File: j6019_3.smnaiveor1.wcnf
c optimal
c final solution cost: 44
c CPU time: 2.242826
s OPTIMUM FOUND

c File: j6019_3.smor1.wcnf
c optimal
c final solution cost: 44
c CPU time: 0.106044
s OPTIMUM FOUND


rcpsp/heur_output_or_constraints/Log=1/heurj60.txt
encoding rcpsp/j60.sm/j6019_4.sm nv: 186296 nc: 415722 enctime: 4.82
encoding rcpsp/j60.sm/j6019_4.sm nv: 25696 nc: 55472 enctime: 0.26
c File: j6019_4.smnaiveor1.wcnf
c optimal
c final solution cost: 40
c CPU time: 1.310973
s OPTIMUM FOUND

c File: j6019_4.smor1.wcnf
c optimal
c final solution cost: 40
c CPU time: 0.079933
s OPTIMUM FOUND


rcpsp/heur_output_or_constraints/Log=1/heurj60.txt
encoding rcpsp/j60.sm/j6019_5.sm nv: 157740 nc: 369241 enctime: 4.30
encoding rcpsp/j60.sm/j6019_5.sm nv: 26768 nc: 60717 enctime: 0.45
c File: j6019_5.smnaiveor1.wcnf
c optimal
c final solution cost: 50
c CPU time: 1.224390
s OPTIMUM FOUND

c File: j6019_5.smor1.wcnf
c optimal
c final solution cost: 50
c CPU time: 0.079094
s OPTIMUM FOUND


rcpsp/heur_output_or_constraints/Log=1/heurj60.txt
encoding rcpsp/j60.sm/j6019_6.sm nv: 168756 nc: 395193 enctime: 4.70
encoding rcpsp/j60.sm/j6019_6.sm nv: 27552 nc: 62560 enctime: 0.47
c File: j6019_6.smnaiveor1.wcnf
c optimal
c final solution cost: 46
c CPU time: 1.234028
s OPTIMUM FOUND

c File: j6019_6.smor1.wcnf
c optimal
c final solution cost: 46
c CPU time: 0.076956
s OPTIMUM FOUND


rcpsp/heur_output_or_constraints/Log=1/heurj60.txt
encoding rcpsp/j60.sm/j6019_7.sm nv: 175380 nc: 391387 enctime: 4.29
encoding rcpsp/j60.sm/j6019_7.sm nv: 24420 nc: 52747 enctime: 0.42
c File: j6019_7.smnaiveor1.wcnf
c optimal
c final solution cost: 35
c CPU time: 1.047651
s OPTIMUM FOUND

c File: j6019_7.smor1.wcnf
c optimal
c final solution cost: 35
c CPU time: 0.058491
s OPTIMUM FOUND


rcpsp/heur_output_or_constraints/Log=1/heurj60.txt
encoding rcpsp/j60.sm/j6019_8.sm nv: 154380 nc: 360987 enctime: 4.35
encoding rcpsp/j60.sm/j6019_8.sm nv: 23250 nc: 52479 enctime: 0.23
c File: j6019_8.smnaiveor1.wcnf
c optimal
c final solution cost: 40
c CPU time: 1.506427
s OPTIMUM FOUND

c File: j6019_8.smor1.wcnf
c optimal
c final solution cost: 40
c CPU time: 0.122759
s OPTIMUM FOUND


rcpsp/heur_output_or_constraints/Log=1/heurj60.txt
encoding rcpsp/j60.sm/j6019_9.sm nv: 177500 nc: 414228 enctime: 4.90
encoding rcpsp/j60.sm/j6019_9.sm nv: 21000 nc: 46766 enctime: 0.40
c File: j6019_9.smnaiveor1.wcnf
c optimal
c final solution cost: 39
c CPU time: 1.720889
s OPTIMUM FOUND

c File: j6019_9.smor1.wcnf
c optimal
c final solution cost: 39
c CPU time: 0.095323
s OPTIMUM FOUND


rcpsp/heur_output_or_constraints/Log=1/heurj60.txt
encoding rcpsp/j60.sm/j601_9.sm nv: 128625 nc: 321775 enctime: 4.03
encoding rcpsp/j60.sm/j601_9.sm nv: 27000 nc: 65680 enctime: 0.48
c File: j601_9.smnaiveor1.wcnf
c optimal
c final solution cost: 58
c CPU time: 1.344613
s OPTIMUM FOUND

c File: j601_9.smor1.wcnf
c optimal
c final solution cost: 58
c CPU time: 0.221586
s OPTIMUM FOUND


rcpsp/heur_output_or_constraints/Log=1/heurj60.txt
encoding rcpsp/j60.sm/j6020_10.sm nv: 181485 nc: 409481 enctime: 4.82
encoding rcpsp/j60.sm/j6020_10.sm nv: 21090 nc: 45630 enctime: 0.20
c File: j6020_10.smnaiveor1.wcnf
c optimal
c final solution cost: 33
c CPU time: 1.139798
s OPTIMUM FOUND

c File: j6020_10.smor1.wcnf
c optimal
c final solution cost: 33
c CPU time: 0.054384
s OPTIMUM FOUND


rcpsp/heur_output_or_constraints/Log=1/heurj60.txt
encoding rcpsp/j60.sm/j6020_1.sm nv: 205800 nc: 460339 enctime: 5.20
encoding rcpsp/j60.sm/j6020_1.sm nv: 21600 nc: 46196 enctime: 0.36
c File: j6020_1.smnaiveor1.wcnf
c optimal
c final solution cost: 31
c CPU time: 1.357485
s OPTIMUM FOUND

c File: j6020_1.smor1.wcnf
c optimal
c final solution cost: 31
c CPU time: 0.074393
s OPTIMUM FOUND


rcpsp/heur_output_or_constraints/Log=1/heurj60.txt
encoding rcpsp/j60.sm/j6020_2.sm nv: 136697 nc: 307777 enctime: 3.39
encoding rcpsp/j60.sm/j6020_2.sm nv: 17974 nc: 38956 enctime: 0.17
c File: j6020_2.smnaiveor1.wcnf
c optimal
c final solution cost: 32
c CPU time: 1.288824
s OPTIMUM FOUND

c File: j6020_2.smor1.wcnf
c optimal
c final solution cost: 32
c CPU time: 0.063602
s OPTIMUM FOUND


rcpsp/heur_output_or_constraints/Log=1/heurj60.txt
encoding rcpsp/j60.sm/j6020_3.sm nv: 226501 nc: 504228 enctime: 5.72
encoding rcpsp/j60.sm/j6020_3.sm nv: 29205 nc: 62820 enctime: 0.28
c File: j6020_3.smnaiveor1.wcnf
c optimal
c final solution cost: 44
c CPU time: 1.268020
s OPTIMUM FOUND

c File: j6020_3.smor1.wcnf
c optimal
c final solution cost: 44
c CPU time: 0.055264
s OPTIMUM FOUND


rcpsp/heur_output_or_constraints/Log=1/heurj60.txt
encoding rcpsp/j60.sm/j6020_4.sm nv: 221028 nc: 487852 enctime: 5.40
encoding rcpsp/j60.sm/j6020_4.sm nv: 23472 nc: 49714 enctime: 0.22
c File: j6020_4.smnaiveor1.wcnf
c optimal
c final solution cost: 32
c CPU time: 1.137907
s OPTIMUM FOUND

c File: j6020_4.smor1.wcnf
c optimal
c final solution cost: 32
c CPU time: 0.056628
s OPTIMUM FOUND


rcpsp/heur_output_or_constraints/Log=1/heurj60.txt
encoding rcpsp/j60.sm/j6020_5.sm nv: 187824 nc: 429645 enctime: 5.01
encoding rcpsp/j60.sm/j6020_5.sm nv: 22932 nc: 50333 enctime: 0.22
c File: j6020_5.smnaiveor1.wcnf
c optimal
c final solution cost: 37
c CPU time: 1.366218
s OPTIMUM FOUND

c File: j6020_5.smor1.wcnf
c optimal
c final solution cost: 37
c CPU time: 0.063022
s OPTIMUM FOUND


rcpsp/heur_output_or_constraints/Log=1/heurj60.txt
encoding rcpsp/j60.sm/j6020_6.sm nv: 210858 nc: 473199 enctime: 5.25
encoding rcpsp/j60.sm/j6020_6.sm nv: 21770 nc: 46687 enctime: 0.20
c File: j6020_6.smnaiveor1.wcnf
c optimal
c final solution cost: 30
c CPU time: 1.637410
s OPTIMUM FOUND

c File: j6020_6.smor1.wcnf
c optimal
c final solution cost: 30
c CPU time: 0.085078
s OPTIMUM FOUND


rcpsp/heur_output_or_constraints/Log=1/heurj60.txt
encoding rcpsp/j60.sm/j6020_7.sm nv: 209902 nc: 468952 enctime: 5.26
encoding rcpsp/j60.sm/j6020_7.sm nv: 26158 nc: 56536 enctime: 0.46
c File: j6020_7.smnaiveor1.wcnf
c optimal
c final solution cost: 37
c CPU time: 1.363716
s OPTIMUM FOUND

c File: j6020_7.smor1.wcnf
c optimal
c final solution cost: 37
c CPU time: 0.076178
s OPTIMUM FOUND


rcpsp/heur_output_or_constraints/Log=1/heurj60.txt
encoding rcpsp/j60.sm/j6020_8.sm nv: 178856 nc: 396709 enctime: 4.69
encoding rcpsp/j60.sm/j6020_8.sm nv: 19810 nc: 42087 enctime: 0.19
c File: j6020_8.smnaiveor1.wcnf
c optimal
c final solution cost: 31
c CPU time: 1.821395
s OPTIMUM FOUND

c File: j6020_8.smor1.wcnf
c optimal
c final solution cost: 31
c CPU time: 0.066697
s OPTIMUM FOUND


rcpsp/heur_output_or_constraints/Log=1/heurj60.txt
encoding rcpsp/j60.sm/j6020_9.sm nv: 180411 nc: 427124 enctime: 5.12
encoding rcpsp/j60.sm/j6020_9.sm nv: 25347 nc: 57716 enctime: 0.45
c File: j6020_9.smnaiveor1.wcnf
c optimal
c final solution cost: 48
c CPU time: 1.414998
s OPTIMUM FOUND

c File: j6020_9.smor1.wcnf
c optimal
c final solution cost: 48
c CPU time: 0.068598
s OPTIMUM FOUND


